outputs/case_63.model.txt
bank_operate_as_agent = False
practice_certificate_held = True
agent_or_notary = True
broker_disclose_fee_standard = False
broker_charge_fee = 0
guarantee_deposit_amount = 500000
license_permitted = True
guarantee_minimum_amount = 500000
relevant_insurance_subscribed = True
bank_operate_as_broker = False
guarantee = True
management_rules_defined_by_authority = True
guarantee_minimum_amount_set_by_authority = True
broker_fulfill_fidelity_duty = False
broker_exercise_duty_of_care = False
broker = False
liability = True
broker_provide_written_report = False
bank_permit_granted = False
insurance_type = 0
violate_broker_duty_rule = False
violate_165_1_or_163_5_rule = False
violation_financial_or_business_management = False
broker_duty_of_care_and_fidelity = False
correction_or_penalty_required = False
management_rules_set = True
license_and_guarantee_required = True
broker_report_and_fee_disclosure_ok = False
violation_broker_duty = False
penalty = False
relevant_insurance_type_ok = False
violate_financial_or_business_management_rule = False
violation_165_1_or_163_5 = False
bank_permitted_to_operate = False
minimum_guarantee_amount_set = True